c
c Renamed file of b1.cnf 
c Variables are renamed according to left2right.ord 
c
c Date: Thu Apr 29 14:47:05 PDT 2004 by (jinbo)
c Host: Linux solution 2.4.18-4smp #1 SMP Thu May 2 18:32:34 EDT 2002 i686 unknown
c
c Copyright (c) 2001 Fadi A. Aloul.
c
p cnf 21 50
-5 -4 0
4 5 0
-4 3 0
-3 4 0
-13 -7 0
7 13 0
-7 6 0
-6 7 0
-10 -9 0
9 10 0
-9 8 0
-8 9 0
17 -19 0
18 -19 0
19 -17 -18 0
-19 5 0
-17 -16 0
-18 -16 0
16 17 18 0
-16 5 0
-5 19 16 0
-17 -20 0
18 -20 0
20 17 -18 0
-20 13 0
17 -21 0
-18 -21 0
21 -17 18 0
-21 13 0
17 -14 0
10 -14 0
14 -17 -10 0
-14 13 0
18 -12 0
10 -12 0
12 -18 -10 0
-12 13 0
-17 -11 0
-10 -11 0
11 17 10 0
-11 13 0
-18 -15 0
-10 -15 0
15 18 10 0
-15 13 0
-13 20 21 14 12 11 15 0
10 -2 0
2 -10 0
-2 1 0
-1 2 0
